lattice_vector -2.574000    4.458299    0.000000
lattice_vector  5.148000    0.000000    0.000000
lattice_vector  0.000000    0.000000   13.863000

atom     -0.638352    1.442973    1.430246 O
atom      0.638352    1.442973    8.361746 O
atom      1.643525    0.211784    6.051246 O
atom      1.005173    1.317442   12.982746 O
atom     -0.930475    1.697884   10.672246 O
atom     0.930475    1.697884    3.740746 O
atom     0.000000    0.000000   13.863000 Nb
atom     0.000000    0.000000    6.931500 Nb
atom     0.000000    0.000000    3.027679 Li
atom     0.000000    0.000000    9.959179 Li
atom    -0.930475   -1.274315    1.430246 O
atom      1.568827   -0.168657    1.430246 O
atom      0.638352   -1.529226   12.982746 O
atom     -1.643525    0.211784   12.982746 O
atom     -0.638352   -1.529226    6.051246 O
atom     -1.568827   -0.168657    8.361746 O
atom     -1.005173    1.317442    6.051246 O
atom      0.930475   -1.274315    8.361746 O
atom      1.935648   -0.043127   10.672246 O
atom     -1.935648   -0.043127    3.740746 O
atom      1.005173   -1.654757    3.740746 O
atom     -1.005173   -1.654757   10.672246 O
