lattice_vector  3.082573    1.634612    4.244219
lattice_vector  3.082573    4.548115    0.000000
lattice_vector  5.494325    0.000000    0.000000

atom    4.376717    3.043413    3.308412 O
atom    5.916645    1.277148    1.651001 O
atom    4.974832    3.775782    0.598435 O
atom    7.721994    3.372232    1.186302 O
atom    7.123880    2.724413    3.773111 O
atom    6.252055    5.091061    2.720545 O
atom    0.000000    0.000000    0.000000 Nb
atom    5.829735    3.091364    2.122110 Nb
atom   2.546428    1.350308    0.926938 Li
atom   8.376164    4.441671    3.049047 Li
