&CONTROL
  calculation = 'nscf'
  restart_mode= 'from_scratch'
  prefix      = 'LiNbO3'
  pseudo_dir  = '/home/elia/Google-Drive/google-personal/pseudos'
  outdir      = './outdir/LiNbO3.nk=2.not-inverted'
  !tprnfor     = .true.
  !tstress     = .true.
  verbosity   = 'high'
  !lelfield    = .true.
  !max_seconds = 14000
  lberry = .true.
  gdir = 1
  nppstr = 2

/
&SYSTEM
  ecutwfc = 80
  ecutrho = 320
  ibrav = 0
  nat = 10
  ntyp = 3
  !nspin=2
  occupations = 'fixed'
  smearing='gauss'
  degauss=0.005
/
&ELECTRONS
  mixing_mode = 'local-TF'
  conv_thr = 1.0D-5
  mixing_beta = 0.9
  mixing_ndim=25
  electron_maxstep=100
  startingpot = 'file'
  startingwfc = 'file'
/
ATOMIC_SPECIES
  Nb  92.90638 Nb.pbesol-spn-rrkjus_psl.1.0.0.UPF
  Li  6.941    Li.pbesol-sl-rrkjus_psl.1.0.0.UPF
  O   15.9994  O.pbesol-n-rrkjus_psl.1.0.0.UPF

ATOMIC_POSITIONS angstrom
Nb    0.000000    0.000000    0.000000
Nb    2.122126    3.092350    5.824322
Li    0.926838    1.348442    2.530476
Li    3.048136    4.440824    8.365876
 O    3.320239    3.057040    4.360004
 O    0.577786    3.783015    4.975629
 O    1.657683    1.258873    5.922096
 O    2.701127    5.091096    6.256610
 O    3.781582    2.740497    7.107091
 O    1.199735    3.355142    7.722408

K_POINTS automatic
  2 2 2 0 0 0

CELL_PARAMETERS angstrom
 4.2442209319436959 1.6346114044445832 3.0825805539430258
 0.0000000000000000 4.5481196540733295 3.0825782703885887
 0.0000000000000000 0.0000000000000000 5.4943305901844859

HUBBARD ortho-atomic
  U Nb-4d 1.6

