#=======================================================
# FHI-aims file: rotated/geometry.in
# Created using the Atomic Simulation Environment (ASE)
# Thu Jan 19 16:30:28 2023
#=======================================================
lattice_vector 5.4247849157365637 0.0000000000000000 0.0000000000000000 
lattice_vector 3.0435575239874382 4.4905510877210464 0.0000000000000000 
lattice_vector 3.0432317169843839 1.6137499892515090 4.1900534849191997 
atom 3.2338868642956542 1.7151267858953758 1.1771659252832960 Li
atom 8.9899033286094898 4.7668446718967434 3.2721927092191914 Li
atom 11.4893561832229238 6.0926462228020952 4.1818087550725211 Nb
atom 5.7336740745286061 3.0402978247372516 2.0867819741986011 Nb
atom 3.8676910191609579 2.7989209542338007 3.0024068700782545 O
atom 5.3222267043829348 1.0652025948789574 1.5327776004216418 O
atom 4.4869017409882606 3.3882881724945721 0.4431239988960377 O
atom 5.6531347510687855 4.8653490294637534 2.5381507264514034 O
atom 7.1994130460915793 3.0696886348721661 0.9073801280795358 O
atom 6.5800049379007453 2.3696261064979125 3.6278043002056162 O
