&CONTROL
  calculation = 'scf'
  restart_mode= 'from_scratch'
  prefix      = 'LiNbO3'
  pseudo_dir  = '/home/elia/Google-Drive/google-personal/pseudos'
  outdir      = './outdir/LiNbO3.nk=3'
  !tprnfor     = .true.
  tstress     = .true.
  verbosity   = 'high'
  !max_seconds = 14000
/
&SYSTEM
  ecutwfc = 80
  ecutrho = 320
  ibrav = 0
  nat = 10
  ntyp = 3
  !nspin=2
  occupations = 'fixed'
  smearing='gauss'
  degauss=0.005
/
&ELECTRONS
  mixing_mode = 'local-TF'
  conv_thr = 1.0D-5
  mixing_beta = 0.9
  mixing_ndim=25
  electron_maxstep=100
  startingpot = 'atomic'
  startingwfc = 'atomic+random'
/
ATOMIC_SPECIES
  Nb  92.90638 Nb.pbesol-spn-rrkjus_psl.1.0.0.UPF
  Li  6.941    Li.pbesol-sl-rrkjus_psl.1.0.0.UPF
  O   15.9994  O.pbesol-n-rrkjus_psl.1.0.0.UPF

ATOMIC_POSITIONS angstrom
Nb 0.0000000000000000 0.0000000000000000 0.0000000000000000
Nb 2.1221095475093028 3.0913641912968206 5.8297421841084560
Li 0.9269379812055256 1.3503071218556133 2.5464318072137013
Li 3.0490472225606471 4.4416708671650555 8.3761731502722938
O  3.3084140913015978 3.0434134293594788 4.3767229121143147
O  0.5984328989453233 3.7757846260319821 4.9748369898250369
O  1.6510004045942073 1.2771466584192508 5.9166516041872290
O  2.7205454907139694 5.0910623021432997 6.2520634158725779
O  3.7731119747571396 2.7244134817558763 7.1238879101699180
O  1.1863007773106955 3.3722326019081628 7.7220021661886218

K_POINTS automatic
  3 3 3 0 0 0

CELL_PARAMETERS angstrom
 4.2442209319436959 1.6346114044445832 3.0825805539430258
 0.0000000000000000 4.5481196540733295 3.0825782703885887
 0.0000000000000000 0.0000000000000000 5.4943305901844859

HUBBARD ortho-atomic
  U Nb-4d 1.6

