&CONTROL
  calculation = 'scf'
  restart_mode= 'from_scratch'
  prefix      = 'LiNbO3'
  pseudo_dir  = '/home/elia/Google-Drive/google-personal/pseudos'
  outdir      = './outdir/LiNbO3.nk=3'
  !tprnfor     = .true.
  tstress     = .true.
  verbosity   = 'high'
  max_seconds = 14000
  lberry      = .true.
  gdir        = 1
  nppstr      = 3
/
&SYSTEM
  ecutwfc = 80
  ecutrho = 320
  ibrav = 0
  nat = 10
  ntyp = 3
  !nspin=2
  occupations = 'fixed'
  smearing='gauss'
  degauss=0.005
  !starting_magnetization(1)=0.0
  !starting_magnetization(2)=0.0
  !tot_magnetization=0.0
  !vdw_corr = 'grimme-d3'
/
&ELECTRONS
  mixing_mode = 'local-TF'
  conv_thr = 1.0D-5
  mixing_beta = 0.9
  mixing_ndim=25
  electron_maxstep=100
  startingpot = 'file'
  startingwfc = 'file'
/
ATOMIC_SPECIES
  Nb  92.90638 Nb.pbesol-spn-rrkjus_psl.1.0.0.UPF
  Li  6.941    Li.pbesol-sl-rrkjus_psl.1.0.0.UPF
  O   15.9994  O.pbesol-n-rrkjus_psl.1.0.0.UPF

ATOMIC_POSITIONS angstrom
  Nb 0.0000000000 0.0000000000 0.0000000000
  Nb 2.1221100804 3.0913636473 5.8297351578
  Li 0.9269380351 1.3503078459 2.5464280689
  Li 3.0490471156 4.4416704932 8.3761642267
  O 3.3084121254 3.0434125293 4.3767171055
  O 1.6510010626 1.2771477759 5.9166450629
  O 0.5984350227 3.7757817710 4.9748322448
  O 1.1863020450 3.3722317295 7.7219942189
  O 3.7731111430 2.7244124965 7.1238800889
  O 2.7205451031 5.0910604975 6.2520552632

K_POINTS automatic
  3 3 3 0 0 0

CELL_PARAMETERS angstrom
  4.24421916085847 1.63461149740447 3.08257297931127
  0.00000000000000 4.54811479709897 3.08257329936587
  0.00000000000000 0.00000000000000 5.49432503687523

HUBBARD ortho-atomic
  U Nb-4d 1.6

