&CONTROL
  calculation = 'scf'
  restart_mode= 'from_scratch'
  prefix      = 'LiNbO3'
  pseudo_dir  = '/home/elia/Google-Drive/google-personal/pseudos'
  outdir      = './outdir/LiNbO3.nk=2'
  !tprnfor     = .true.
  !tstress     = .true.
  verbosity   = 'high'
  !lelfield    = .true.
  !max_seconds = 14000
  !lberry = .false.
  !gdir = 
  !nppstr = 2

/
&SYSTEM
  ecutwfc = 80
  ecutrho = 320
  ibrav = 0
  nat = 10
  ntyp = 3
  !nspin=2
  occupations = 'fixed'
  smearing='gauss'
  degauss=0.005
/
&ELECTRONS
  mixing_mode = 'local-TF'
  conv_thr = 1.0D-5
  mixing_beta = 0.9
  mixing_ndim=25
  electron_maxstep=100
  startingpot = 'file'
  startingwfc = 'file'
/
ATOMIC_SPECIES
  Nb  92.90638 Nb.pbesol-spn-rrkjus_psl.1.0.0.UPF
  Li  6.941    Li.pbesol-sl-rrkjus_psl.1.0.0.UPF
  O   15.9994  O.pbesol-n-rrkjus_psl.1.0.0.UPF

K_POINTS automatic
  2 2 2 0 0 0

CELL_PARAMETERS angstrom
 4.2442209319436959 1.6346114044445832 3.0825805539430258
 0.0000000000000000 4.5481196540733295 3.0825782703885887
 0.0000000000000000 0.0000000000000000 5.4943305901844859

HUBBARD ortho-atomic
  U Nb-4d 1.6

ATOMIC_POSITIONS angstrom
Nb      0.100000000000000      0.100000000000000      0.100000000000000
Nb      2.122126000000000      3.092350000000000      5.824322000000000
Li      0.926838000000000      1.348442000000000      2.530476000000000
Li      3.048136000000000      4.440824000000000      8.365876000000000
O       3.781582000000000      2.740497000000000      7.107091000000000
O       1.199735000000000      3.355142000000000      7.722408000000000
O       0.577786000000000      3.783015000000000      4.975629000000000
O       1.657683000000000      1.258873000000000      5.922096000000000
O       2.701127000000000      5.091096000000000      6.256610000000000
O       3.320239000000000      3.057040000000000      4.360004000000000
