&CONTROL
  calculation = 'nscf'
  restart_mode= 'from_scratch'
  prefix      = 'LiNbO3'
  pseudo_dir  = '/home/elia/Google-Drive/google-personal/pseudos'
  outdir      = './outdir/LiNbO3.nk=2'
  !tprnfor     = .true.
  !tstress     = .true.
  verbosity   = 'high'
  !lelfield    = .true.
  !max_seconds = 14000
  lberry = .true.
  gdir = 3
  nppstr = 2

/
&SYSTEM
  ecutwfc = 80
  ecutrho = 320
  ibrav = 0
  nat = 10
  ntyp = 3
  !nspin=2
  occupations = 'fixed'
  smearing='gauss'
  degauss=0.005
/
&ELECTRONS
  mixing_mode = 'local-TF'
  conv_thr = 1.0D-5
  mixing_beta = 0.9
  mixing_ndim=25
  electron_maxstep=100
  startingpot = 'file'
  startingwfc = 'file'
/
ATOMIC_SPECIES
  Nb  92.90638 Nb.pbesol-spn-rrkjus_psl.1.0.0.UPF
  Li  6.941    Li.pbesol-sl-rrkjus_psl.1.0.0.UPF
  O   15.9994  O.pbesol-n-rrkjus_psl.1.0.0.UPF

K_POINTS automatic
  2 2 2 0 0 0

CELL_PARAMETERS angstrom
 4.2442209319436959 1.6346114044445832 3.0825805539430258
 0.0000000000000000 4.5481196540733295 3.0825782703885887
 0.0000000000000000 0.0000000000000000 5.4943305901844859

HUBBARD ortho-atomic
  U Nb-4d 1.6

ATOMIC_POSITIONS angstrom
Nb      0.000000000000000      0.000000000000000      0.000000000000000
Nb      2.122113600000000      3.091562400000000      5.828660000000000
Li      1.034536800000000      1.505828000000000      2.835730800000000
Li      3.155834800000000      4.598210000000000      8.671130800000000
O       3.735523200000000      2.604184600000000      6.937798599999999
O       1.089433800000000      3.263361600000000      7.553238799999999
O       0.531726800000000      3.646702600000000      4.806336600000000
O       1.611847000000000      1.191977800000000      5.714409200000000
O       2.655291400000000      5.024201200000000      6.048923200000001
O       3.209937400000000      2.965259600000000      4.190834799999999
