# 
# This is the geometry file that corresponds to the current relaxation step.
# If you do not want this file to be written, set the "write_restart_geometry" flag to .false.
#  aims_uuid : FC77FDCD-D1A6-4EFB-A7CE-3F9BE46FC093                                
# 
lattice_vector      2.54142150      1.46729079      4.56251311
lattice_vector     -2.54142150      1.46729079      4.56251312
lattice_vector     -0.00000000     -2.93426682      4.56202529
atom      -0.00024483      0.00005590      3.84517928 Li
atom       0.00024487      0.00021323     10.68870502 Li
atom      -0.00011201      0.00048246     13.66064302 Nb
atom       0.00011197      0.00032513      6.81711729 Nb
atom      -0.66082027     -1.41066277      5.42040464 O
atom       1.55229768      0.13315474      5.42059061 O
atom      -0.89141997      1.27774349      5.42050596 O
atom      -1.65000158     -0.18938990      7.70151862 O
atom       0.66082033      1.52376144      7.70190514 O
atom       0.98912380     -1.33397864      7.70160321 O
# 
# What follows is the current estimated Hessian matrix constructed by the BFGS algorithm.
# This is NOT the true Hessian matrix of the system.
# If you do not want this information here, switch it off using the "hessian_to_restart_geometry" keyword.
# 
trust_radius             0.2000000030
hessian_file
