&CONTROL
  calculation = 'scf'
  restart_mode= 'from_scratch'
  prefix      = 'LiNbO3'
  pseudo_dir  = '/home/elia/Google-Drive/google-personal/pseudos'
  outdir      = './outdir/LiNbO3.nk=2'
  !tprnfor     = .true.
  !tstress     = .false.
  verbosity   = 'high'
  max_seconds = 14000
  lberry      = .true.
  gdir        = 1
  nppstr      = 3
/
&SYSTEM
  ecutwfc = 80
  ecutrho = 320
  ibrav = 0
  nat = 10
  ntyp = 3
  !nspin=2
  occupations = 'fixed'
  smearing='gauss'
  degauss=0.005
  !starting_magnetization(1)=0.0
  !starting_magnetization(2)=0.0
  !tot_magnetization=0.0
  !vdw_corr = 'grimme-d3'
/
&ELECTRONS
  mixing_mode = 'local-TF'
  conv_thr = 1.0D-4
  mixing_beta = 0.9
  mixing_ndim=25
  electron_maxstep=100
  startingpot = 'atomic'
  startingwfc = 'atomic+random'
/
ATOMIC_SPECIES
  Nb  92.90638 Nb.pbesol-spn-rrkjus_psl.1.0.0.UPF
  Li  6.941    Li.pbesol-sl-rrkjus_psl.1.0.0.UPF
  O   15.9994  O.pbesol-n-rrkjus_psl.1.0.0.UPF

K_POINTS automatic
  2 2 2 0 0 0

CELL_PARAMETERS angstrom
  4.24102999660546 1.63392996111767 3.08247152070467
  0.00000000000000 4.54490544781247 3.08244612716667
  0.00000000000000 0.00000000000000 5.49157234881015

HUBBARD ortho-atomic
  U Nb-4d 1.6

ATOMIC_POSITIONS angstrom
Nb      4.229830524899994      6.162503859199991     11.625708190699989
Nb      2.109316447799995      3.073088100099994      5.797446674699987
Li      1.189197565499996      1.732590817999993      3.268552432999988
Li      3.309748934399995      4.822044123599992      9.096887266499985
O       3.046223720900000      2.822528460800000      3.926877560900000
O       1.538692588100000      1.084790576100000      5.396485853400000
O       0.459082481800000      3.441332063500000      4.540096088900000
O       2.579609550800000      4.915229807000000      5.733105328000000
O       0.925708696400000      3.121103460100000      7.285890427600000
O       3.659197721100000      2.401817634000000      6.672655342100000
