lattice_vector 2.4399938875       0.8626681120       1.4941850000
lattice_vector 0.0000000000       2.5880043359       1.4941850000
lattice_vector 0.0000000000       0.0000000000       2.9883700000

atom_frac 0.0 0.0 0.0 Mg
atom_frac 0.5 0.5 0.5 O
