&CONTROL
  calculation = 'nscf'
  restart_mode= 'from_scratch'
  prefix      = 'LiNbO3'
  pseudo_dir  = '/home/elia/Google-Drive/google-personal/pseudos'
  outdir      = './outdir/LiNbO3.nk=2'
  !tprnfor     = .true.
  !tstress     = .true.
  verbosity   = 'high'
  !lelfield    = .true.
  !max_seconds = 14000
  lberry = .true.
  gdir = 2
  nppstr = 2

/
&SYSTEM
  ecutwfc = 80
  ecutrho = 320
  ibrav = 0
  nat = 10
  ntyp = 3
  !nspin=2
  occupations = 'fixed'
  smearing='gauss'
  degauss=0.005
/
&ELECTRONS
  mixing_mode = 'local-TF'
  conv_thr = 1.0D-5
  mixing_beta = 0.9
  mixing_ndim=25
  electron_maxstep=100
  startingpot = 'file'
  startingwfc = 'file'
/
ATOMIC_SPECIES
  Nb  92.90638 Nb.pbesol-spn-rrkjus_psl.1.0.0.UPF
  Li  6.941    Li.pbesol-sl-rrkjus_psl.1.0.0.UPF
  O   15.9994  O.pbesol-n-rrkjus_psl.1.0.0.UPF

K_POINTS automatic
  2 2 2 0 0 0

CELL_PARAMETERS angstrom
 4.2442209319436959 1.6346114044445832 3.0825805539430258
 0.0000000000000000 4.5481196540733295 3.0825782703885887
 0.0000000000000000 0.0000000000000000 5.4943305901844859

HUBBARD ortho-atomic
  U Nb-4d 1.6

ATOMIC_POSITIONS angstrom
Nb      0.100000000000000      0.100000000000000      0.100000000000000
Nb      2.122107400000000      3.091168600000000      5.830829000000000
Li      1.088386200000000      1.584521000000000      2.988358200000000
Li      3.209684200000000      4.676903000000000      8.823758200000000
O       3.712493800000000      2.536028400000000      6.853152399999999
O       1.034283200000000      3.217471400000000      7.468654200000000
O       0.508697200000000      3.578546400000000      4.721690400000000
O       1.588929000000000      1.158530200000000      5.610565800000000
O       2.632373600000000      4.990753800000000      5.945079800000000
O       3.154786600000000      2.919369400000000      4.106250200000000
