&CONTROL
  calculation = 'nscf'
  restart_mode= 'from_scratch'
  prefix      = 'LiNbO3'
  pseudo_dir  = '/home/elia/Google-Drive/google-personal/pseudos'
  outdir      = './outdir/LiNbO3.nk=2.displaced'
  !tprnfor     = .true.
  !tstress     = .true.
  verbosity   = 'high'
  !lelfield    = .true.
  !max_seconds = 14000
  lberry = .true.
  gdir = 2
  nppstr = 2

/
&SYSTEM
  ecutwfc = 80
  ecutrho = 320
  ibrav = 0
  nat = 10
  ntyp = 3
  !nspin=2
  occupations = 'fixed'
  smearing='gauss'
  degauss=0.005
/
&ELECTRONS
  mixing_mode = 'local-TF'
  conv_thr = 1.0D-5
  mixing_beta = 0.9
  mixing_ndim=25
  electron_maxstep=100
  startingpot = 'atomic'
  startingwfc = 'atomic+random'
/
ATOMIC_SPECIES
  Nb  92.90638 Nb.pbesol-spn-rrkjus_psl.1.0.0.UPF
  Li  6.941    Li.pbesol-sl-rrkjus_psl.1.0.0.UPF
  O   15.9994  O.pbesol-n-rrkjus_psl.1.0.0.UPF

K_POINTS automatic
  2 2 2 0 0 0

CELL_PARAMETERS angstrom
 4.2442209319436959 1.6346114044445832 3.0825805539430258
 0.0000000000000000 4.5481196540733295 3.0825782703885887
 0.0000000000000000 0.0000000000000000 5.4943305901844859

HUBBARD ortho-atomic
  U Nb-4d 1.6

ATOMIC_POSITIONS angstrom
Nb      0.000000000000000      0.000000000000000      0.000000000000000
Nb      2.122101200000000      3.090774800000000      5.832998000000000
Li      1.142235600000000      1.663214000000000      3.140985600000000
Li      3.263533600000000      4.755596000000001      8.976385600000000
O       3.689464400000000      2.467872200000000      6.768506200000000
O       0.979132600000000      3.171581200000000      7.384069600000000
O       0.485667600000000      3.510390200000000      4.637044200000000
O       1.566011000000000      1.125082600000000      5.506722400000000
O       2.609455800000000      4.957306400000000      5.841236400000001
O       3.099635800000000      2.873479200000000      4.021665600000000
