&CONTROL
  calculation = 'nscf'
  restart_mode= 'from_scratch'
  prefix      = 'LiNbO3'
  pseudo_dir  = '/home/elia/Google-Drive/google-personal/pseudos'
  outdir      = './outdir/LiNbO3.nk=2.displaced'
  !tprnfor     = .true.
  !tstress     = .true.
  verbosity   = 'high'
  !lelfield    = .true.
  !max_seconds = 14000
  lberry = .true.
  gdir = 3
  nppstr = 2

/
&SYSTEM
  ecutwfc = 80
  ecutrho = 320
  ibrav = 0
  nat = 10
  ntyp = 3
  !nspin=2
  occupations = 'fixed'
  smearing='gauss'
  degauss=0.005
/
&ELECTRONS
  mixing_mode = 'local-TF'
  conv_thr = 1.0D-5
  mixing_beta = 0.9
  mixing_ndim=25
  electron_maxstep=100
  startingpot = 'atomic'
  startingwfc = 'atomic+random'
/
ATOMIC_SPECIES
  Nb  92.90638 Nb.pbesol-spn-rrkjus_psl.1.0.0.UPF
  Li  6.941    Li.pbesol-sl-rrkjus_psl.1.0.0.UPF
  O   15.9994  O.pbesol-n-rrkjus_psl.1.0.0.UPF

K_POINTS automatic
  2 2 2 0 0 0

CELL_PARAMETERS angstrom
 4.2442209319436959 1.6346114044445832 3.0825805539430258
 0.0000000000000000 4.5481196540733295 3.0825782703885887
 0.0000000000000000 0.0000000000000000 5.4943305901844859

HUBBARD ortho-atomic
  U Nb-4d 1.6

ATOMIC_POSITIONS angstrom
Nb      0.000000000000000      0.000000000000000      0.000000000000000
Nb      2.122119800000000      3.091956200000000      5.826491000000001
Li      0.980687400000000      1.427135000000000      2.683103400000000
Li      3.101985400000000      4.519517000000000      8.518503400000000
O       3.758552600000001      2.672340800000000      7.022444800000000
O       1.144584400000000      3.309251800000000      7.637823400000000
O       0.554756400000000      3.714858800000000      4.890982800000000
O       1.634765000000000      1.225425400000000      5.818252600000000
O       2.678209200000000      5.057648600000000      6.152766600000001
O       3.265088200000000      3.011149800000000      4.275419400000001
