&CONTROL
/
&SYSTEM
   ntyp             = 3
   nat              = 10
   ibrav            = 0
/
&ELECTRONS
/
&IONS
/
&CELL
/

ATOMIC_SPECIES
Nb 92.90637 None
Li 6.94 None
O 15.999 None

K_POINTS gamma

CELL_PARAMETERS angstrom
4.24421916085847 1.63461149740447 3.08257297931127
0.00000000000000 4.54811479709897 3.08257329936587
0.00000000000000 0.00000000000000 5.49432503687523

ATOMIC_POSITIONS angstrom
Nb 0.0000000000 0.0000000000 0.0000000000 
Nb 2.1221100804 3.0913636473 5.8297351578 
Li 0.9269380351 1.3503078459 2.5464280689 
Li 3.0490471156 4.4416704932 8.3761642267 
O 3.3084121254 3.0434125293 4.3767171055 
O 1.6510010626 1.2771477759 5.9166450629 
O 0.5984350227 3.7757817710 4.9748322448 
O 1.1863020450 3.3722317295 7.7219942189 
O 3.7731111430 2.7244124965 7.1238800889 
O 2.7205451031 5.0910604975 6.2520552632 

