lattice_vector 4.241030 1.633930 3.082472
lattice_vector 0.000000 4.544905 3.082446
lattice_vector 0.000000 0.000000 5.491572

atom 4.229831 6.162504 11.625708 Nb
atom 2.109316 3.073088 5.797447 Nb
atom 1.189198 1.732591 3.268552 Li
atom 3.309749 4.822044 9.096887 Li
atom 3.046224 2.822528 3.926878 O
atom 1.538693 1.084791 5.396486 O
atom 0.459082 3.441332 4.540096 O
atom 2.579610 4.915230 5.733105 O
atom 0.925709 3.121103 7.285890 O
atom 3.659198 2.401818 6.672655 O
