#=======================================================
# FHI-aims file: rotated/geometry.in
# Created using the Atomic Simulation Environment (ASE)
# Thu Jan 19 16:30:28 2023
#=======================================================
lattice_vector      5.42478492      0.00000000      0.00000000
lattice_vector      3.04355752      4.49055109      0.00000000
lattice_vector      3.04323172      1.61374999      4.19005348
atom       3.23227581      1.71416492      1.17684181 Li
atom       8.98862883      4.76649557      3.27141845 Li
atom      11.48968490      6.09285025      4.18195868 Nb
atom       5.73401741      3.04051461      2.08684373 Nb
atom       3.86817438      2.79869474      3.00272681 O
atom       5.32275547      1.06553699      1.53248210 O
atom       4.48697501      3.38870175      0.44357722 O
atom       5.65370288      4.86515064      2.53858135 O
atom       7.19949437      3.07019595      0.90766634 O
atom       6.58048357      2.36968557      3.62749650 O
