lattice_vector 0.000000 2.113100 2.113100
lattice_vector 2.113100 0.000000 2.113100
lattice_vector 2.113100 2.113100 0.000000

atom 0.000000 0.000000 0.000000 Mg
atom 2.113100 2.113100 2.113100 O
