lattice_vector 2.98837468 0.00000000 0.00000000
lattice_vector 1.49418734 2.58800839 0.00000000
lattice_vector 1.49418734 0.86266946 2.43999771

atom_frac 0.0 0.0 0.0 Mg
atom_frac 0.5 0.5 0.5 O

#lattice_vector 0.000000 2.113100 2.113100
#lattice_vector 2.113100 0.000000 2.113100
#lattice_vector 2.113100 2.113100 0.000000

#atom 0.000000 0.000000 0.000000 Mg
#atom 2.113100 2.113100 2.113100 O
