&CONTROL
  calculation = 'scf'
  !etot_conv_thr =   2.0000000000d-05
  !forc_conv_thr =   1.0000000000d-04
  outdir = './outdir/'
  prefix = 'MgO'
  pseudo_dir = '/home/elia/Google-Drive/google-personal/pseudos'
  !tprnfor = .true.
  !tstress = .true.
  verbosity = 'low'
  !srvaddress='UNIX:MgO:0000'
  lberry        = .true.
  gdir          = 1
  nppstr        = 5
  !lelfield      = .false.
/
&SYSTEM
  ecutrho =   400
  ecutwfc =   50
  ibrav = 0
  nat = 2
  nosym = .false.
  ntyp = 2
  occupations = 'fixed'
/
&ELECTRONS
  conv_thr =   4.0000000000d-10
  electron_maxstep = 80
  mixing_beta =   0.4
/
ATOMIC_SPECIES
Mg     24.305 Mg.pbesol-n-kjpaw_psl.0.3.0.UPF
O      15.9994 O.pbesol-n-kjpaw_psl.0.1.UPF
ATOMIC_POSITIONS crystal
Mg           0.0000000000       0.0000000000       0.0000000000
O            0.5000000000       0.5000000000       0.5000000000
K_POINTS automatic
2 2 2 0 0 0
CELL_PARAMETERS angstrom
      2.9883700000       0.0000000000       0.0000000000
      1.4941850000       2.5880043359       0.0000000000
      1.4941850000       0.8626681120       2.4399938875
