&CONTROL
  calculation = 'scf'
  restart_mode= 'from_scratch'
  prefix      = 'LiNbO3'
  pseudo_dir  = '/home/elia/Google-Drive/google-personal/pseudos'
  outdir      = './outdir/LiNbO3.nk=2'
  tprnfor     = .true.
  tstress     = .false.
  verbosity   = 'high'
  max_seconds = 14000
/
&SYSTEM
  ecutwfc = 80
  ecutrho = 320
  ibrav = 0
  nat = 80
  ntyp = 3
  occupations = 'smearing'
  smearing='gauss'
  degauss=0.005
/
&ELECTRONS
  mixing_mode = 'local-TF'
  conv_thr = 1.0D-5
  mixing_beta = 0.9
  mixing_ndim=25
  electron_maxstep=100
  startingpot = 'file'
  startingwfc = 'file'
/
ATOMIC_SPECIES
  Nb  92.90638 Nb.pbesol-spn-rrkjus_psl.1.0.0.UPF
  Li  6.941    Li.pbesol-sl-rrkjus_psl.1.0.0.UPF
  O   15.9994  O.pbesol-n-rrkjus_psl.1.0.0.UPF

ATOMIC_POSITIONS angstrom
Nb 4.2298310000 6.1625040000 11.6257080000
Nb 2.1093160000 3.0730880000 5.7974470000
Li 1.1891980000 1.7325910000 3.2685520000
Li 3.3097490000 4.8220440000 9.0968870000
O 3.0462240000 2.8225280000 3.9268780000
O 1.5386930000 1.0847910000 5.3964860000
O 0.4590820000 3.4413320000 4.5400960000
O 2.5796100000 4.9152300000 5.7331050000
O 0.9257090000 3.1211030000 7.2858900000
O 3.6591980000 2.4018180000 6.6726550000
Nb 4.2298310000 6.1625040000 17.1172810000
Nb 2.1093160000 3.0730880000 11.2890190000
Li 1.1891980000 1.7325910000 8.7601250000
Li 3.3097490000 4.8220440000 14.5884600000
O 3.0462240000 2.8225280000 9.4184500000
O 1.5386930000 1.0847910000 10.8880580000
O 0.4590820000 3.4413320000 10.0316680000
O 2.5796100000 4.9152300000 11.2246780000
O 0.9257090000 3.1211030000 12.7774630000
O 3.6591980000 2.4018180000 12.1642280000
Nb 4.2298310000 10.7074090000 14.7081540000
Nb 2.1093160000 7.6179940000 8.8798930000
Li 1.1891980000 6.2774960000 6.3509990000
Li 3.3097490000 9.3669500000 12.1793330000
O 3.0462240000 7.3674340000 7.0093240000
O 1.5386930000 5.6296960000 8.4789320000
O 0.4590820000 7.9862380000 7.6225420000
O 2.5796100000 9.4601350000 8.8155510000
O 0.9257090000 7.6660090000 10.3683370000
O 3.6591980000 6.9467230000 9.7551010000
Nb 4.2298310000 10.7074090000 20.1997270000
Nb 2.1093160000 7.6179940000 14.3714650000
Li 1.1891980000 6.2774960000 11.8425710000
Li 3.3097490000 9.3669500000 17.6709060000
O 3.0462240000 7.3674340000 12.5008960000
O 1.5386930000 5.6296960000 13.9705040000
O 0.4590820000 7.9862380000 13.1141150000
O 2.5796100000 9.4601350000 14.3071240000
O 0.9257090000 7.6660090000 15.8599090000
O 3.6591980000 6.9467230000 15.2466740000
Nb 8.4708610000 7.7964340000 14.7081800000
Nb 6.3503460000 4.7070180000 8.8799180000
Li 5.4302280000 3.3665210000 6.3510240000
Li 7.5507790000 6.4559740000 12.1793590000
O 7.2872540000 4.4564580000 7.0093490000
O 5.7797230000 2.7187210000 8.4789570000
O 4.7001120000 5.0752620000 7.6225680000
O 6.8206400000 6.5491600000 8.8155770000
O 5.1667390000 4.7550330000 10.3683620000
O 7.9002280000 4.0357480000 9.7551270000
Nb 8.4708610000 7.7964340000 20.1997520000
Nb 6.3503460000 4.7070180000 14.3714910000
Li 5.4302280000 3.3665210000 11.8425960000
Li 7.5507790000 6.4559740000 17.6709310000
O 7.2872540000 4.4564580000 12.5009210000
O 5.7797230000 2.7187210000 13.9705300000
O 4.7001120000 5.0752620000 13.1141400000
O 6.8206400000 6.5491600000 14.3071490000
O 5.1667390000 4.7550330000 15.8599340000
O 7.9002280000 4.0357480000 15.2466990000
Nb 8.4708610000 12.3413390000 17.7906260000
Nb 6.3503460000 9.2519240000 11.9623640000
Li 5.4302280000 7.9114260000 9.4334700000
Li 7.5507790000 11.0008800000 15.2618050000
O 7.2872540000 9.0013640000 10.0917950000
O 5.7797230000 7.2636260000 11.5614040000
O 4.7001120000 9.6201670000 10.7050140000
O 6.8206400000 11.0940650000 11.8980230000
O 5.1667390000 9.2999390000 13.4508080000
O 7.9002280000 8.5806530000 12.8375730000
Nb 8.4708610000 12.3413390000 23.2821980000
Nb 6.3503460000 9.2519240000 17.4539370000
Li 5.4302280000 7.9114260000 14.9250420000
Li 7.5507790000 11.0008800000 20.7533770000
O 7.2872540000 9.0013640000 15.5833680000
O 5.7797230000 7.2636260000 17.0529760000
O 4.7001120000 9.6201670000 16.1965860000
O 6.8206400000 11.0940650000 17.3895950000
O 5.1667390000 9.2999390000 18.9423800000
O 7.9002280000 8.5806530000 18.3291450000

K_POINTS automatic
  2 2 2 0 0 0

CELL_PARAMETERS angstrom
 8.482060 3.267860 6.164943
 0.000000 9.089811 6.164892
 0.000000 0.000000 10.983145

HUBBARD ortho-atomic
  U Nb-4d 1.6

