lattice_vector 8.482060 3.267860 6.164943
lattice_vector 0.000000 9.089811 6.164892
lattice_vector 0.000000 0.000000 10.983145

atom 4.229831 6.162504 11.625708 Nb
atom 2.109316 3.073088 5.797447 Nb
atom 1.189198 1.732591 3.268552 Li
atom 3.309749 4.822044 9.096887 Li
atom 3.046224 2.822528 3.926878 O
atom 1.538693 1.084791 5.396486 O
atom 0.459082 3.441332 4.540096 O
atom 2.579610 4.915230 5.733105 O
atom 0.925709 3.121103 7.285890 O
atom 3.659198 2.401818 6.672655 O
atom 4.229831 6.162504 17.117281 Nb
atom 2.109316 3.073088 11.289019 Nb
atom 1.189198 1.732591 8.760125 Li
atom 3.309749 4.822044 14.588460 Li
atom 3.046224 2.822528 9.418450 O
atom 1.538693 1.084791 10.888058 O
atom 0.459082 3.441332 10.031668 O
atom 2.579610 4.915230 11.224678 O
atom 0.925709 3.121103 12.777463 O
atom 3.659198 2.401818 12.164228 O
atom 4.229831 10.707409 14.708154 Nb
atom 2.109316 7.617994 8.879893 Nb
atom 1.189198 6.277496 6.350999 Li
atom 3.309749 9.366950 12.179333 Li
atom 3.046224 7.367434 7.009324 O
atom 1.538693 5.629696 8.478932 O
atom 0.459082 7.986238 7.622542 O
atom 2.579610 9.460135 8.815551 O
atom 0.925709 7.666009 10.368337 O
atom 3.659198 6.946723 9.755101 O
atom 4.229831 10.707409 20.199727 Nb
atom 2.109316 7.617994 14.371465 Nb
atom 1.189198 6.277496 11.842571 Li
atom 3.309749 9.366950 17.670906 Li
atom 3.046224 7.367434 12.500896 O
atom 1.538693 5.629696 13.970504 O
atom 0.459082 7.986238 13.114115 O
atom 2.579610 9.460135 14.307124 O
atom 0.925709 7.666009 15.859909 O
atom 3.659198 6.946723 15.246674 O
atom 8.470861 7.796434 14.708180 Nb
atom 6.350346 4.707018 8.879918 Nb
atom 5.430228 3.366521 6.351024 Li
atom 7.550779 6.455974 12.179359 Li
atom 7.287254 4.456458 7.009349 O
atom 5.779723 2.718721 8.478957 O
atom 4.700112 5.075262 7.622568 O
atom 6.820640 6.549160 8.815577 O
atom 5.166739 4.755033 10.368362 O
atom 7.900228 4.035748 9.755127 O
atom 8.470861 7.796434 20.199752 Nb
atom 6.350346 4.707018 14.371491 Nb
atom 5.430228 3.366521 11.842596 Li
atom 7.550779 6.455974 17.670931 Li
atom 7.287254 4.456458 12.500921 O
atom 5.779723 2.718721 13.970530 O
atom 4.700112 5.075262 13.114140 O
atom 6.820640 6.549160 14.307149 O
atom 5.166739 4.755033 15.859934 O
atom 7.900228 4.035748 15.246699 O
atom 8.470861 12.341339 17.790626 Nb
atom 6.350346 9.251924 11.962364 Nb
atom 5.430228 7.911426 9.433470 Li
atom 7.550779 11.000880 15.261805 Li
atom 7.287254 9.001364 10.091795 O
atom 5.779723 7.263626 11.561404 O
atom 4.700112 9.620167 10.705014 O
atom 6.820640 11.094065 11.898023 O
atom 5.166739 9.299939 13.450808 O
atom 7.900228 8.580653 12.837573 O
atom 8.470861 12.341339 23.282198 Nb
atom 6.350346 9.251924 17.453937 Nb
atom 5.430228 7.911426 14.925042 Li
atom 7.550779 11.000880 20.753377 Li
atom 7.287254 9.001364 15.583368 O
atom 5.779723 7.263626 17.052976 O
atom 4.700112 9.620167 16.196586 O
atom 6.820640 11.094065 17.389595 O
atom 5.166739 9.299939 18.942380 O
atom 7.900228 8.580653 18.329145 O
