&CONTROL
  calculation = 'scf'
  restart_mode= 'from_scratch'
  prefix      = 'LiNbO3'
  pseudo_dir  = '/home/elia/Google-Drive/google-personal/pseudos'
  outdir      = './outdir/LiNbO3.nk=3'
  tprnfor     = .true.
  tstress     = .true.
  verbosity   = 'high'
  max_seconds = 14000
/
&SYSTEM
  ecutwfc = 80
  ecutrho = 320
  ibrav = 0
  nat = 10
  ntyp = 3
  !nspin=2
  occupations = 'smearing'
  smearing='gauss'
  degauss=0.005
  !starting_magnetization(1)=0.0
  !starting_magnetization(2)=0.0
  !tot_magnetization=0.0
  !vdw_corr = 'grimme-d3'
/
&ELECTRONS
  mixing_mode = 'local-TF'
  conv_thr = 1.0D-5
  mixing_beta = 0.9
  mixing_ndim=25
  electron_maxstep=100
  startingpot = 'file'
  startingwfc = 'file'
/
ATOMIC_SPECIES
  Nb  92.90638 Nb.pbesol-spn-rrkjus_psl.1.0.0.UPF
  Li  6.941    Li.pbesol-sl-rrkjus_psl.1.0.0.UPF
  O   15.9994  O.pbesol-n-rrkjus_psl.1.0.0.UPF

ATOMIC_POSITIONS angstrom
Nb    4.181958    6.092849   11.489685
Nb    2.086843    3.040516    5.734021
Li    1.176843    1.714167    3.232280
Li    3.271417    4.766494    8.988627
 O    3.002726    2.798695    3.868177
 O    1.532483    1.065538    5.322757
 O    0.443576    3.388700    4.486975
 O    2.538581    4.865153    5.653706
 O    0.907666    3.070195    7.199496
 O    3.627496    2.369687    6.580484

K_POINTS automatic
  3 3 3 0 0 0

CELL_PARAMETERS angstrom
  4.190053 1.613750 3.043232
  0.000000 4.490551 3.043558
  0.000000 0.000000 5.424785

HUBBARD ortho-atomic
  U Nb-4d 1.6

