# 
# This is the geometry file that corresponds to the current relaxation step.
# If you do not want this file to be written, set the "write_restart_geometry" flag to .false.
#  aims_uuid : 5A3D37DF-4CA5-433D-AACD-AEE5502D42E6                                
# 
lattice_vector      2.57400000      1.48610000      4.62100000
lattice_vector     -2.57400000      1.48610000      4.62100000
lattice_vector      0.00000000     -2.97219900      4.62100000
atom      -0.00021571     -0.00009188      3.88760926 Li
atom       0.00021573     -0.00009135     10.81910912 Li
atom      -0.00014711      0.00012697     13.84014865 Nb
atom       0.00014708      0.00012644      6.90864868 Nb
atom      -0.63048244     -1.43829773      5.49119983 O
atom       1.56081137      0.17316633      5.49120895 O
atom      -0.93053699      1.26509595      5.49123935 O
atom      -1.64346300     -0.22100342      7.80173937 O
atom       0.63048256      1.53390193      7.80169987 O
atom       1.01318851     -1.31293324      7.80170894 O
# 
# What follows is the current estimated Hessian matrix constructed by the BFGS algorithm.
# This is NOT the true Hessian matrix of the system.
# If you do not want this information here, switch it off using the "hessian_to_restart_geometry" keyword.
# 
trust_radius             0.2000000030
hessian_file
