lattice_vector      2.57400000      1.48610000      4.62100000
lattice_vector     -2.57400000      1.48610000      4.62100000
lattice_vector      0.00000000     -2.97219900      4.62100000

atom -0.000000 -0.000000 3.889958 Li
atom -0.000000 -0.000000 10.821458 Li
atom 0.000000 0.000000 13.849137 Nb
atom -0.000000 0.000000 6.917637 Nb
atom -0.638326 -1.442958 5.487437 O
atom 1.568802 0.168672 5.487437 O
atom -0.930475 1.274286 5.487437 O
atom -1.643525 -0.211814 7.797937 O
atom 0.638326 1.529241 7.797937 O
atom 1.005198 -1.317427 7.797937 O
